310 309 308 505 504 503 502 501 500 499 452 453 440 441 450 449 448 447 446 445 444 443 442 439 454 455 456 457 458 459 460 461 462 463 466 467 465 464 496 497 498 519 518 495 494 472 471 470 469 468 571 572 573 5 0 4 1 2 3 437 438 436 435 434 433 432 430 429 428 427 426 425 424 423 422 421 420 419 417 418 410 411 412 413 414 416 415 351 352 353 354 355 356 357 349 350 348 347 362 346 345 364 363 361 358 359 360 401 402 403 400 399 397 398 370 369 368 365 367 366 342 343 344 341 340 330 331 332 333 339 338 337 336 335 334 283 284 285 286 287 280 281 282 279 278 288 289 290 277 276 275 274 273 292 291 295 296 294 293 270 269 272 271 268 267 266 265 264 263 262 261 260 259 258 257 256 255 253 254 252 251 250 249 248 300 241 242 243 244 245 247 246 238 239 240 237 236 235 234 232 233 231 230 229 228 227 189 225 226 190 191 192 193 219 218 220 221 222 224 223 217 216 215 214 213 212 211 210 209 205 206 207 208 203 204 202 201 200 199 198 197 196 195 194 184 183 185 186 188 187 182 179 181 180 178 177 176 175 174 173 172 170 171 169 168 162 163 167 166 164 165 154 153 146 147 148 152 149 150 151 141 142 143 144 145 158 157 159 156 155 160 161 113 131 130 132 133 134 135 136 140 139 138 137 129 128 127 126 125 124 69 68 70 71 72 65 66 67 64 76 75 73 74 77 78 88 89 90 87 86 85 82 81 80 79 62 63 61 60 59 58 57 83 56 55 53 84 51 50 52 54 49 48 47 45 46 91 92 93 94 97 95 96 98 554 553 552 99 100 101 102 103 104 105 106 118 119 120 121 122 123 117 116 115 114 112 111 110 109 108 107 542 541 543 544 547 546 545 548 549 564 566 565 563 562 561 560 550 551 559 558 557 556 555 44 43 42 39 41 40 38 37 36 35 34 33 32 30 29 28 31 22 23 12 13 14 15 16 11 10 9 6 7 8 17 18 19 20 21 24 25 26 27 567 568 569 570 474 473 475 476 477 478 479 480 481 482 483 493 524 525 492 491 490 486 485 484 537 539 540 538 536 535 487 534 488 533 532 489 531 530 529 528 526 523 522 521 520 517 516 515 514 513 527 512 511 510 509 506 507 508 302 301 303 304 307 305 306 318 317 321 320 319 299 298 297 324 329 328 327 326 325 323 322 373 372 371 396 395 394 393 391 392 390 389 388 387 408 407 406 405 404 409 384 383 385 386 382 431 381 380 379 378 377 376 375 374 315 314 316 313 312 451 311